(set-logic ALL)
(declare-const n_VAR Int)
(assert (not (<= n_VAR 0)))
(assert (not (<= n_VAR 1)))
(assert (not (= n_VAR 2)))
(assert (= (mod n_VAR 2) 0))
(assert (= (mod n_VAR 2) 0))
(assert (= (mod (div n_VAR 2) 2) 0))
(assert (= (mod (div (div n_VAR 2) 2) 2) 0))
(assert (= (mod (div (div (div n_VAR 2) 2) 2) 2) 0))
(assert (= (mod (div (div (div (div n_VAR 2) 2) 2) 2) 2) 0))
(assert (= (mod (div (div (div (div (div n_VAR 2) 2) 2) 2) 2) 2) 0))
(assert (= (mod (div (div (div (div (div (div n_VAR 2) 2) 2) 2) 2) 2) 2) 0))
(assert (= (mod (div (div (div (div (div (div (div n_VAR 2) 2) 2) 2) 2) 2) 2) 2) 0))
(assert (= (mod (div (div (div (div (div (div (div (div n_VAR 2) 2) 2) 2) 2) 2) 2) 2) 2) 0))
(assert (= (mod (div (div (div (div (div (div (div (div (div n_VAR 2) 2) 2) 2) 2) 2) 2) 2) 2) 2) 0))
(assert (= (mod (div (div (div (div (div (div (div (div (div (div n_VAR 2) 2) 2) 2) 2) 2) 2) 2) 2) 2) 2) 0))
(assert (= (mod (div (div (div (div (div (div (div (div (div (div (div n_VAR 2) 2) 2) 2) 2) 2) 2) 2) 2) 2) 2) 2) 0))
(assert (= (mod (div (div (div (div (div (div (div (div (div (div (div (div n_VAR 2) 2) 2) 2) 2) 2) 2) 2) 2) 2) 2) 2) 2) 0))
(assert (= (mod (div (div (div (div (div (div (div (div (div (div (div (div (div n_VAR 2) 2) 2) 2) 2) 2) 2) 2) 2) 2) 2) 2) 2) 2) 0))
(assert (= (mod (div (div (div (div (div (div (div (div (div (div (div (div (div (div n_VAR 2) 2) 2) 2) 2) 2) 2) 2) 2) 2) 2) 2) 2) 2) 2) 0))
(assert (= (mod (div (div (div (div (div (div (div (div (div (div (div (div (div (div (div n_VAR 2) 2) 2) 2) 2) 2) 2) 2) 2) 2) 2) 2) 2) 2) 2) 2) 0))
(assert (= (mod (div (div (div (div (div (div (div (div (div (div (div (div (div (div (div (div n_VAR 2) 2) 2) 2) 2) 2) 2) 2) 2) 2) 2) 2) 2) 2) 2) 2) 2) 0))
(assert (= (mod (div (div (div (div (div (div (div (div (div (div (div (div (div (div (div (div (div n_VAR 2) 2) 2) 2) 2) 2) 2) 2) 2) 2) 2) 2) 2) 2) 2) 2) 2) 2) 0))
(assert (= (mod (div (div (div (div (div (div (div (div (div (div (div (div (div (div (div (div (div (div n_VAR 2) 2) 2) 2) 2) 2) 2) 2) 2) 2) 2) 2) 2) 2) 2) 2) 2) 2) 2) 0))
(assert (= (mod (div (div (div (div (div (div (div (div (div (div (div (div (div (div (div (div (div (div (div n_VAR 2) 2) 2) 2) 2) 2) 2) 2) 2) 2) 2) 2) 2) 2) 2) 2) 2) 2) 2) 2) 0))
(assert (not (= (mod (div (div (div (div (div (div (div (div (div (div (div (div (div (div (div (div (div (div (div (div n_VAR 2) 2) 2) 2) 2) 2) 2) 2) 2) 2) 2) 2) 2) 2) 2) 2) 2) 2) 2) 2) 2) 0)))
(assert (not (<= (div (div (div (div (div (div (div (div (div (div (div (div (div (div (div (div (div (div (div (div n_VAR 2) 2) 2) 2) 2) 2) 2) 2) 2) 2) 2) 2) 2) 2) 2) 2) 2) 2) 2) 2) 1)))
(assert (= (div (div (div (div (div (div (div (div (div (div (div (div (div (div (div (div (div (div (div (div n_VAR 2) 2) 2) 2) 2) 2) 2) 2) 2) 2) 2) 2) 2) 2) 2) 2) 2) 2) 2) 2) 2))
(check-sat)
(get-value (n_VAR))
